min_signal_strength = 5;
TOWER = {t0, t1, t2, t3, t4, t5, t6, t7, t8, t9, t10, t11, t12, t13, t14, t15, t16, t17, t18, t19, t20, t21, t22, t23, t24, t25, t26, t27, t28, t29};
HANDSET = {h0, h1, h2, h3, h4, h5, h6, h7, h8, h9, h10, h11, h12, h13, h14, h15, h16, h17, h18, h19, h20, h21, h22, h23, h24, h25, h26, h27, h28, h29, h30, h31, h32, h33, h34, h35, h36, h37, h38, h39, h40, h41, h42, h43, h44, h45, h46, h47, h48, h49, h50, h51, h52, h53, h54, h55, h56, h57, h58, h59, h60, h61, h62, h63, h64, h65, h66, h67, h68, h69, h70, h71, h72, h73, h74, h75, h76, h77, h78, h79, h80, h81, h82, h83, h84, h85, h86, h87, h88, h89, h90, h91, h92, h93, h94, h95, h96, h97, h98, h99};
distance = distance = [|60.83, 52.39, 24.04, 55.58, 55.01, 69.97, 52.15, 45.01, 37.01, 21.21, 51.09, 4.12, 35.13, 48.41, 31.83, 70.33, 45.71, 47.71, 65.22, 9.00, 31.89, 56.75, 61.85, 48.27, 50.36, 59.23, 24.19, 24.19, 59.08, 69.46
    |20.62]; // array too long to display, dimensions: (2901)

demand = [18, 38, 47, 59, 41, 26, 70, 39, 16, 37, 7, 95, 4, 16, 94, 70, 39, 12, 81, 87, 76, 92, 8, 39, 40, 55, 85, 62, 33, 33, 74, 21, 9, 33, 89, 41, 22, 35, 8, 37, 46, 86, 47, 58, 62, 31, 45, 24, 11, 85, 56, 19, 54, 18, 71, 46, 90, 42, 72, 83, 44, 87, 89, 98, 70, 33, 35, 49, 89, 91, 65, 4, 25, 21, 48, 12, 76, 2, 82, 65, 37, 13, 27, 81, 44, 66, 95, 56, 17, 77, 44, 100, 11, 38, 87, 61, 17, 8, 16, 99];
capacity = [300, 300, 300, 300, 300, 300, 300, 300, 300, 300, 300, 300, 300, 300, 300, 300, 300, 300, 300, 300, 300, 300, 300, 300, 300, 300, 300, 300, 300, 300];
